solving instance mcf nodes c39 3 6 square
presolving:
(round 1, fast)       249 del vars, 249 del conss, 0 add conss, 20 chg bounds, 0 chg sides, 0 chg coeffs, 0 upgd conss, 0 impls, 0 clqs
(round 2, fast)       478 del vars, 249 del conss, 0 add conss, 20 chg bounds, 0 chg sides, 0 chg coeffs, 0 upgd conss, 0 impls, 0 clqs
(round 3, fast)       478 del vars, 249 del conss, 0 add conss, 20 chg bounds, 229 chg sides, 0 chg coeffs, 0 upgd conss, 0 impls, 0 clqs
   (0.6s) symmetry computation started: requiring (bin +, int +, cont +), (fixed: bin -, int -, cont -)
   (0.7s) no symmetry present (symcode time: 0.03)
presolving (4 rounds: 4 fast, 1 medium, 1 exhaustive):
 478 deleted vars, 249 deleted constraints, 0 added constraints, 20 tightened bounds, 0 added holes, 229 changed sides, 0 changed coefficients
 0 implications, 0 cliques
presolved problem has 45840 variables (0 bin, 0 int, 0 impl, 45840 cont) and 4269 constraints
   4249 constraints of type <linear>
     20 constraints of type <nonlinear>
Presolving Time: 0.58

 time | node  | left  |LP iter|LP it/n|mem/heur|mdpt |vars |cons |rows |cuts |sepa|confs|strbr|  dualbound   | primalbound  |  gap   | compl. 
  8.9s|     1 |     0 | 12101 |     - |   254M |   0 |  45k|4269 |4329 |   0 |  0 |   0 |   0 | 1.540884e+03 |      --      |    Inf | unknown
L30.2s|     1 |     0 | 12101 |     - |  subnlp|   0 |  45k|4269 |4329 |   0 |  0 |   0 |   0 | 1.540884e+03 | 1.671801e+03 |   8.50%| unknown
 30.7s|     1 |     0 | 12738 |     - |   257M |   0 |  45k|4269 |4349 |  20 |  1 |   0 |   0 | 1.638432e+03 | 1.671801e+03 |   2.04%| unknown
 30.8s|     1 |     0 | 12738 |     - |   257M |   0 |  45k|4269 |4349 |  20 |  1 |   0 |   0 | 1.638432e+03 | 1.671801e+03 |   2.04%| unknown
 31.0s|     1 |     0 | 13178 |     - |   257M |   0 |  45k|4269 |4365 |  36 |  2 |   0 |   0 | 1.661481e+03 | 1.671801e+03 |   0.62%| unknown
 31.3s|     1 |     0 | 13416 |     - |   257M |   0 |  45k|4269 |4380 |  51 |  3 |   0 |   0 | 1.668465e+03 | 1.671801e+03 |   0.20%| unknown
 31.4s|     1 |     0 | 13499 |     - |   257M |   0 |  45k|4269 |4395 |  66 |  4 |   0 |   0 | 1.670703e+03 | 1.671801e+03 |   0.07%| unknown
 31.5s|     1 |     0 | 13565 |     - |   257M |   0 |  45k|4269 |4410 |  81 |  5 |   0 |   0 | 1.671549e+03 | 1.671801e+03 |   0.02%| unknown
 31.6s|     1 |     0 | 13611 |     - |   257M |   0 |  45k|4269 |4425 |  96 |  6 |   0 |   0 | 1.671768e+03 | 1.671801e+03 |   0.00%| unknown
 31.6s|     1 |     0 | 13625 |     - |   257M |   0 |  45k|4269 |4440 | 111 |  7 |   0 |   0 | 1.671791e+03 | 1.671801e+03 |   0.00%| unknown
 31.7s|     1 |     0 | 13640 |     - |   257M |   0 |  45k|4269 |4455 | 126 |  8 |   0 |   0 | 1.671798e+03 | 1.671801e+03 |   0.00%| unknown
 31.7s|     1 |     0 | 13654 |     - |   257M |   0 |  45k|4269 |4470 | 141 |  9 |   0 |   0 | 1.671800e+03 | 1.671801e+03 |   0.00%| unknown

SCIP Status        : solving was interrupted [gap limit reached]
Solving Time (sec) : 31.69
Solving Nodes      : 1
Primal Bound       : +1.67180061893285e+03 (2 solutions)
Dual Bound         : +1.67179951310459e+03
Gap                : 0.00 %
solution violates original bounds of variable <w[28]> [0,733] solution value <-1.33752e-06>
best solution is not feasible in original problem
primal_bound = 1671.800618932846, dual_bound = 1671.7995131045857, gap = 6.614594155281623e-5, time = 34.53
